822357
4,7,73,25,78,51,79,29,40,94,26,17,12,19,43,24,59,90,71,34,46,28,11,23,98,54,65,52,22,84,92,39,14,81,86,45,87,76,38,50,88,83,15,16,82,58,61,67,35,97,42,27,2,3,64,5,85,89,8,53,91,44,55,72,36,99,80,68,63,13,37,48,1,70,74,32,60,31,62,93,49,10,56,69,75,6,41,18,77,30,96,21,20,9,33,57,47,95,66,4